
******************************************************************************
This program contains Ipopt, a library for large-scale nonlinear optimization.
 Ipopt is released as open source code under the Eclipse Public License (EPL).
         For more information visit http://projects.coin-or.org/Ipopt

This version of Ipopt was compiled from source code available at
    https://github.com/IDAES/Ipopt as part of the Institute for the Design of
    Advanced Energy Systems Process Systems Engineering Framework (IDAES PSE
    Framework) Copyright (c) 2018-2019. See https://github.com/IDAES/idaes-pse.

This version of Ipopt was compiled using HSL, a collection of Fortran codes
    for large-scale scientific computation.  All technical papers, sales and
    publicity material resulting from use of the HSL codes within IPOPT must
    contain the following acknowledgement:
        HSL, a collection of Fortran codes for large-scale scientific
        computation. See http://www.hsl.rl.ac.uk.
******************************************************************************

This is Ipopt version 3.13.2, running with linear solver ma27.

Number of nonzeros in equality constraint Jacobian...:      928
Number of nonzeros in inequality constraint Jacobian.:        0
Number of nonzeros in Lagrangian Hessian.............:      806

Total number of variables............................:      403
                     variables with only lower bounds:      124
                variables with lower and upper bounds:      217
                     variables with only upper bounds:        0
Total number of equality constraints.................:      402
Total number of inequality constraints...............:        0
        inequality constraints with only lower bounds:        0
   inequality constraints with lower and upper bounds:        0
        inequality constraints with only upper bounds:        0

iter    objective    inf_pr   inf_du lg(mu)  ||d||  lg(rg) alpha_du alpha_pr  ls
   0  0.0000000e+00 1.17e+00 4.44e-16  -1.0 0.00e+00    -  0.00e+00 0.00e+00   0
   1  9.5602627e-01 8.63e-01 3.60e+04  -1.0 1.97e+05    -  4.49e-01 3.10e-01h  1
   2  1.0122978e+00 8.53e-01 3.56e+04  -1.0 1.58e+05    -  5.34e-01 1.23e-02h  1
   3  2.2744375e+00 7.07e-01 3.08e+04  -1.0 2.01e+05    -  5.43e-01 1.84e-01h  1
   4  1.9058651e+01 1.87e-01 2.90e+03  -1.0 1.71e+05    -  7.15e-01 9.90e-01h  1
   5  2.1925516e+01 1.85e-02 9.57e+02  -1.0 1.81e+04    -  8.23e-01 9.90e-01h  1
   6  2.1981428e+01 3.75e-04 4.60e+01  -1.0 4.70e+02    -  9.90e-01 9.90e-01h  1
   7  2.2002597e+01 3.01e-05 1.75e+01  -1.0 3.24e+02    -  9.90e-01 9.90e-01h  1
   8  2.1997394e+01 2.97e-05 4.69e+07  -2.5 1.09e+03    -  9.97e-01 7.41e-02h  3
   9  2.1981743e+01 1.75e-05 1.06e+06  -2.5 2.45e+02    -  9.98e-01 9.89e-01h  1
iter    objective    inf_pr   inf_du lg(mu)  ||d||  lg(rg) alpha_du alpha_pr  ls
  10  2.1981833e+01 1.70e-05 4.64e+09  -2.5 4.48e+01    -  1.00e+00 3.12e-02f  6
  11  2.1984575e+01 6.81e-07 2.71e+07  -2.5 4.26e+01    -  1.00e+00 9.97e-01h  1
  12  2.1984583e+01 1.94e-09 4.94e+09  -2.5 1.21e-01    -  1.00e+00 9.97e-01h  1
In iteration 12, 31 Slacks too small, adjusting variable bounds
  13  2.1984583e+01 5.46e-12 1.75e+12  -2.5 3.41e-04    -  1.00e+00 9.97e-01h  1
  14  2.1984583e+01 2.36e-12 6.05e-02  -2.5 9.54e-07    -  1.00e+00 1.00e+00h  1
  15  2.1984577e+01 2.47e-12 1.76e+12  -9.0 4.62e+01    -  1.00e+00 1.90e-03f 10
  16  2.1984574e+01 3.13e-12 1.76e+12  -9.0 4.49e+01    -  1.00e+00 9.76e-04f 11
  17  2.1981679e+01 5.92e-12 4.83e+06  -9.0 4.49e+01    -  1.00e+00 1.00e+00F  1
  18  2.1981679e+01 5.78e-12 1.40e-09  -9.0 1.40e-05    -  1.00e+00 1.00e+00h  1

Number of Iterations....: 18

                                   (scaled)                 (unscaled)
Objective...............:   2.1981679114800521e+01    2.1981679114800521e+01
Dual infeasibility......:   1.3969838619232178e-09    1.3969838619232178e-09
Constraint violation....:   5.7802651554084150e-12    5.7802651554084150e-12
Complementarity.........:   9.0910045286423719e-10    9.0910045286423719e-10
Overall NLP error.......:   5.7802651554084150e-12    1.3969838619232178e-09


Number of objective function evaluations             = 56
Number of objective gradient evaluations             = 19
Number of equality constraint evaluations            = 56
Number of inequality constraint evaluations          = 0
Number of equality constraint Jacobian evaluations   = 19
Number of inequality constraint Jacobian evaluations = 0
Number of Lagrangian Hessian evaluations             = 18
Total CPU secs in IPOPT (w/o function evaluations)   =      0.041
Total CPU secs in NLP function evaluations           =      0.660

EXIT: Optimal Solution Found.
